bench/smt/log/sat/loop_zilu.benchmark07_linear.smt.log
unsat
(error "line 14 column 14: model is not available")
